c Grid graph 4x20
p edge 80 136
e 1 2
e 1 21
e 2 3
e 2 22
e 3 4
e 3 23
e 4 5
e 4 24
e 5 6
e 5 25
e 6 7
e 6 26
e 7 8
e 7 27
e 8 9
e 8 28
e 9 10
e 9 29
e 10 11
e 10 30
e 11 12
e 11 31
e 12 13
e 12 32
e 13 14
e 13 33
e 14 15
e 14 34
e 15 16
e 15 35
e 16 17
e 16 36
e 17 18
e 17 37
e 18 19
e 18 38
e 19 20
e 19 39
e 20 40
e 21 22
e 21 41
e 22 23
e 22 42
e 23 24
e 23 43
e 24 25
e 24 44
e 25 26
e 25 45
e 26 27
e 26 46
e 27 28
e 27 47
e 28 29
e 28 48
e 29 30
e 29 49
e 30 31
e 30 50
e 31 32
e 31 51
e 32 33
e 32 52
e 33 34
e 33 53
e 34 35
e 34 54
e 35 36
e 35 55
e 36 37
e 36 56
e 37 38
e 37 57
e 38 39
e 38 58
e 39 40
e 39 59
e 40 60
e 41 42
e 41 61
e 42 43
e 42 62
e 43 44
e 43 63
e 44 45
e 44 64
e 45 46
e 45 65
e 46 47
e 46 66
e 47 48
e 47 67
e 48 49
e 48 68
e 49 50
e 49 69
e 50 51
e 50 70
e 51 52
e 51 71
e 52 53
e 52 72
e 53 54
e 53 73
e 54 55
e 54 74
e 55 56
e 55 75
e 56 57
e 56 76
e 57 58
e 57 77
e 58 59
e 58 78
e 59 60
e 59 79
e 60 80
e 61 62
e 62 63
e 63 64
e 64 65
e 65 66
e 66 67
e 67 68
e 68 69
e 69 70
e 70 71
e 71 72
e 72 73
e 73 74
e 74 75
e 75 76
e 76 77
e 77 78
e 78 79
e 79 80
